c description: Random 3-CNF over 15 variables and 30 clauses
c generator: CNFgen (0.9.0)
c copyright: (C) 2012-2020 Massimo Lauria <massimo.lauria@uniroma1.it>
c url: https://massimolauria.net/cnfgen
c
p cnf 15 30
1 7 15 0
-5 -7 15 0
-1 -3 10 0
-11 14 15 0
-1 -3 6 0
10 -11 13 0
-3 -5 -11 0
-1 -4 -12 0
-2 5 -6 0
-6 -7 10 0
-5 14 -15 0
7 9 15 0
1 10 -15 0
7 -8 15 0
-7 9 -13 0
-3 5 -15 0
-10 -11 -14 0
3 -8 12 0
1 8 -13 0
-5 7 -13 0
-1 -5 9 0
11 -13 15 0
-4 -11 15 0
6 12 13 0
-7 8 -11 0
7 -9 -11 0
-2 4 6 0
12 -13 -14 0
-1 2 10 0
4 9 13 0